1, 20, 38, 40, 41, 49, 48, 50, 51, 43, 42, 39, 35, 34, 33, 1
1, 17, 30, 23, 29, 28, 27, 21, 22, 53, 52, 15, 16, 14, 1
1, 18, 2, 3, 7, 4, 6, 5, 9, 12, 11, 10, 13, 8, 19, 1
1, 26, 31, 25, 44, 45, 46, 47, 37, 24, 32, 36, 1
